12 40 6 10
18 7 12 2 12 1 12 9 15 12 14 10 1 12 11 19 4 17 20 6 14 14 2 4 11 20 17 9 13 5 13 9 15 20 19 5 5 1 20 6 
9.78 0.04 6.18 9.04 9.54 5.08 2 12.32 2.87 12.91 5.44 11.06 6.83 5.56 4.35 1.95 9.27 9.14 11.9 3.46 9.09 12.72 0.01 3.78 15.53 8.86 11.12 8.48 11.76 9.46 14.03 1.25 7.33 2.68 1.42 3.18 7.66 8.34 4.89 11.1 
11.22 10.56 9.82 7.12 9.37 12.32 10.57 4.62 12.49 9.34 12.08 10.66 6.4 8.79 14.69 6.77 8.84 0.09 14.57 9.85 8.68 0.9 9.5 1.11 8.85 11.44 12.84 11.84 9.64 7.79 9.72 15 8.76 3.51 3.77 8.69 8.53 1.41 1.26 5.27 
6.07 7.43 1.54 5.17 2.04 8.86 2.86 11.87 13.93 9.15 10.69 6.55 12.88 1.42 5.69 0.38 14.02 4.7 7.16 1.27 1.77 4.51 6.16 15.42 4.81 11.56 2.89 3.32 11.46 9.19 2.9 12.56 15.69 7.1 2.89 8.48 12.67 14.14 14.11 9.04 
6.13 12.95 0.41 2.22 5.04 4.75 15.98 15.43 14.14 7.83 3.84 12.54 10.91 7.9 14.58 5.57 10.78 13.02 0.8 13.71 15.65 7.46 13.18 10.27 12.61 3.73 12.27 6.83 11.08 11.72 3.1 0.67 10.07 6.01 0.17 11.56 15.84 13.13 1.84 8.43 
13.05 8.25 8.76 14.44 3.98 6.82 11.63 0.43 6.34 15.86 7.99 10.59 10.58 5.92 0.85 12.27 6.06 5.63 12.53 9.17 5.31 4.62 6.65 10.22 5.8 14.46 9.82 6.72 8.07 2.5 8.81 8.56 7.48 3.34 11.6 0.84 13.79 3.06 10.05 14.7 
5.9 6.69 13.42 16 14.87 2.19 2.4 0.56 1.52 0.12 0.09 10.97 12.92 8.45 6.34 10.21 6.03 11.28 11.23 0.21 13.38 8.54 7.83 13.8 4.87 8.24 8.04 0.21 11.11 8.94 8.8 0.22 1.12 9.56 1.6 5.07 13.46 14.55 1.55 2.1 
8 8 8 8 8 8 8 8 8 8 8 8 8 8 8 8 8 8 8 8 8 8 8 8 8 8 8 8 8 8 8 8 8 8 8 8 8 8 8 8 
4.74 4.55 11.12 9 12.95 14.51 2.05 0.99 13.22 6.62 2.95 15.14 4.57 7.18 10.88 13.67 1.13 11.82 3.63 2.96 2.03 5.87 10.89 8.41 6.73 4.51 0.91 11.25 8.17 2.94 2.64 13.82 11.19 5.85 0.35 10.42 4.72 9.01 9.55 9.96 
6.96 3.57 0.05 13.91 8.6 4.95 13.59 7.94 0.09 8.15 4.02 14.47 14.65 12.24 4.65 2.64 11.1 8.96 9.58 12.59 4.51 7.01 4.62 10.22 10.15 9.86 14.28 15.27 15.26 3.54 8.19 15.96 8.83 5.07 12.22 11.28 2.33 11.99 9.94 6.92 
15.01 14.12 2.3 6.67 15.27 12.9 15.62 13.85 10.44 2.97 9.29 0.16 11.24 2.2 12.03 8.02 14.75 12.69 10.97 9.84 9.71 14.47 14.49 14.07 11.15 12.32 0.77 2.25 1.47 2.29 2.69 15.32 15.16 1.26 8.11 14.61 4.84 4.84 14.85 6.01 
2.85 15.57 6.41 15.42 1.43 4.36 4.37 4.84 5.58 15.17 2.2 1.92 15.06 11.6 14.94 7.69 0.7 5.96 14.86 8.64 2.76 15.69 7.58 6.46 8.76 8.01 5.93 7.14 1.44 14.7 12.21 14.73 5.48 9.55 7.6 10.73 13.08 5.96 2.67 13.87 
4.17 5.64 4.52 5.52 4.72 2.94 6.17 4.38 15.55 12.98 3.45 3.96 0.03 3.5 3.46 7.82 3.72 11.41 0.82 4.03 14.78 2.6 3.99 11.42 14.99 0.74 8.79 12.46 15.45 0.04 12.02 11.75 4.15 6.4 6.12 12.53 0.46 13.03 3.84 1.57 
1 1 1 1 1 1 1 1 1 1 1 1 1 1 1 1 1 1 1 1 1 1 1 1 1 1 1 1 1 1 1 1 1 1 1 1 1 1 1 1 
1 1 1 1 1 1 1 1 1 1 1 1 1 1 1 1 1 1 1 1 1 1 1 1 1 1 1 1 1 1 1 1 1 1 1 1 1 1 1 1 
1 1 1 1 1 1 1 1 1 1 1 1 1 1 1 1 1 1 1 1 1 1 1 1 1 1 1 1 1 1 1 1 1 1 1 1 1 1 1 1 
1 1 1 1 1 1 1 1 1 1 1 1 1 1 1 1 1 1 1 1 1 1 1 1 1 1 1 1 1 1 1 1 1 1 1 1 1 1 1 1 
1 1 1 1 1 1 1 1 1 1 1 1 1 1 1 1 1 1 1 1 1 1 1 1 1 1 1 1 1 1 1 1 1 1 1 1 1 1 1 1 
1 1 1 1 1 1 1 1 1 1 1 1 1 1 1 1 1 1 1 1 1 1 1 1 1 1 1 1 1 1 1 1 1 1 1 1 1 1 1 1 
1 1 1 1 1 1 1 1 1 1 1 1 1 1 1 1 1 1 1 1 1 1 1 1 1 1 1 1 1 1 1 1 1 1 1 1 1 1 1 1 
1 1 1 1 1 1 1 1 1 1 1 1 1 1 1 1 1 1 1 1 1 1 1 1 1 1 1 1 1 1 1 1 1 1 1 1 1 1 1 1 
1 1 1 1 1 1 1 1 1 1 1 1 1 1 1 1 1 1 1 1 1 1 1 1 1 1 1 1 1 1 1 1 1 1 1 1 1 1 1 1 
1 1 1 1 1 1 1 1 1 1 1 1 1 1 1 1 1 1 1 1 1 1 1 1 1 1 1 1 1 1 1 1 1 1 1 1 1 1 1 1 
1 1 1 1 1 1 1 1 1 1 1 1 1 1 1 1 1 1 1 1 1 1 1 1 1 1 1 1 1 1 1 1 1 1 1 1 1 1 1 1 
1 1 1 1 1 1 1 1 1 1 1 1 1 1 1 1 1 1 1 1 1 1 1 1 1 1 1 1 1 1 1 1 1 1 1 1 1 1 1 1 
0.01 0.01 0.01 0.01 0.01 0.01 0.01 0.01 0.01 0.01 0.01 0.01 0.01 0.01 0.01 0.01 0.01 0.01 0.01 0.01 0.01 0.01 0.01 0.01 0.01 0.01 0.01 0.01 0.01 0.01 0.01 0.01 0.01 0.01 0.01 0.01 0.01 0.01 0.01 0.01 
0.02 0.02 0.02 0.02 0.02 0.02 0.02 0.02 0.02 0.02 0.02 0.02 0.02 0.02 0.02 0.02 0.02 0.02 0.02 0.02 0.02 0.02 0.02 0.02 0.02 0.02 0.02 0.02 0.02 0.02 0.02 0.02 0.02 0.02 0.02 0.02 0.02 0.02 0.02 0.02 
0.03 0.03 0.03 0.03 0.03 0.03 0.03 0.03 0.03 0.03 0.03 0.03 0.03 0.03 0.03 0.03 0.03 0.03 0.03 0.03 0.03 0.03 0.03 0.03 0.03 0.03 0.03 0.03 0.03 0.03 0.03 0.03 0.03 0.03 0.03 0.03 0.03 0.03 0.03 0.03 
0.04 0.04 0.04 0.04 0.04 0.04 0.04 0.04 0.04 0.04 0.04 0.04 0.04 0.04 0.04 0.04 0.04 0.04 0.04 0.04 0.04 0.04 0.04 0.04 0.04 0.04 0.04 0.04 0.04 0.04 0.04 0.04 0.04 0.04 0.04 0.04 0.04 0.04 0.04 0.04 
0.05 0.05 0.05 0.05 0.05 0.05 0.05 0.05 0.05 0.05 0.05 0.05 0.05 0.05 0.05 0.05 0.05 0.05 0.05 0.05 0.05 0.05 0.05 0.05 0.05 0.05 0.05 0.05 0.05 0.05 0.05 0.05 0.05 0.05 0.05 0.05 0.05 0.05 0.05 0.05 
0.06 0.06 0.06 0.06 0.06 0.06 0.06 0.06 0.06 0.06 0.06 0.06 0.06 0.06 0.06 0.06 0.06 0.06 0.06 0.06 0.06 0.06 0.06 0.06 0.06 0.06 0.06 0.06 0.06 0.06 0.06 0.06 0.06 0.06 0.06 0.06 0.06 0.06 0.06 0.06 
0.07 0.07 0.07 0.07 0.07 0.07 0.07 0.07 0.07 0.07 0.07 0.07 0.07 0.07 0.07 0.07 0.07 0.07 0.07 0.07 0.07 0.07 0.07 0.07 0.07 0.07 0.07 0.07 0.07 0.07 0.07 0.07 0.07 0.07 0.07 0.07 0.07 0.07 0.07 0.07 
0.2 0.2 0.2 0.2 0.2 0.2 0.2 0.2 0.2 0.2 0.2 0.2 0.2 0.2 0.2 0.2 0.2 0.2 0.2 0.2 0.2 0.2 0.2 0.2 0.2 0.2 0.2 0.2 0.2 0.2 0.2 0.2 0.2 0.2 0.2 0.2 0.2 0.2 0.2 0.2 
0.4 0.4 0.4 0.4 0.4 0.4 0.4 0.4 0.4 0.4 0.4 0.4 0.4 0.4 0.4 0.4 0.4 0.4 0.4 0.4 0.4 0.4 0.4 0.4 0.4 0.4 0.4 0.4 0.4 0.4 0.4 0.4 0.4 0.4 0.4 0.4 0.4 0.4 0.4 0.4 
0.6 0.6 0.6 0.6 0.6 0.6 0.6 0.6 0.6 0.6 0.6 0.6 0.6 0.6 0.6 0.6 0.6 0.6 0.6 0.6 0.6 0.6 0.6 0.6 0.6 0.6 0.6 0.6 0.6 0.6 0.6 0.6 0.6 0.6 0.6 0.6 0.6 0.6 0.6 0.6 
0.8 0.8 0.8 0.8 0.8 0.8 0.8 0.8 0.8 0.8 0.8 0.8 0.8 0.8 0.8 0.8 0.8 0.8 0.8 0.8 0.8 0.8 0.8 0.8 0.8 0.8 0.8 0.8 0.8 0.8 0.8 0.8 0.8 0.8 0.8 0.8 0.8 0.8 0.8 0.8 
1 1 1 1 1 1 1 1 1 1 1 1 1 1 1 1 1 1 1 1 1 1 1 1 1 1 1 1 1 1 1 1 1 1 1 1 1 1 1 1 
